% Logging successfully configured
%%%mzn-stat: initTime=0.014584045
%%%mzn-stat: objective=861
%%%mzn-stat: nodes=85
%%%mzn-stat: restarts=0
%%%mzn-stat: peakDepth=72
%%%mzn-stat: solveTime=0.002171585
%%%mzn-stat: variables=198
%%%mzn-stat: propagators=120
%%%mzn-stat: failures=12
%%%mzn-stat: propagations=713
%%%mzn-stat: nogoods=12
%%%mzn-stat: numAtomicConstraintsPropagated=0
%%%mzn-stat: circuitNumber1PropagationsTotal=74
%%%mzn-stat: circuitNumber1CircuitConflicts=9
%%%mzn-stat: circuitNumber1AlldiffConflicts=0
%%%mzn-stat: circuitNumber1TotalFixedEdgesAtConflict=145
%%%mzn-stat: circuitNumber1NumberOfConflicts=9
%%%mzn-stat: circuitNumber1GacPrunings=153
%%%mzn-stat: circuitNumber1PropagationsThatGacPruned=39
%%%mzn-stat: circuitNumber1TotalPruningHallSetSize=606
%%%mzn-stat: circuitNumber1NumberOfPruningExplanations=153
%%%mzn-stat: circuitNumber1MaxPruningHallSetSize=17
%%%mzn-stat: circuitNumber1TotalSccSizeAtPruning=210
%%%mzn-stat: circuitNumber1NumberOfSccPruningCalls=39
%%%mzn-stat: circuitNumber1TotalVarsInvolvedInPruning=112
%%%mzn-stat: circuitNumber1MaxValuesPrunedFromSingleVar=4
%%%mzn-stat: circuitNumber1HallCircuitChecks=97
%%%mzn-stat: circuitNumber1HallCircuitPrunings=7
%%%mzn-stat: circuitNumber1CircuitPreventPrunings=33
%%%mzn-stat: AverageConflictSize=9.333333333333334
%%%mzn-stat: NumUnitNogoodsLearned=0
%%%mzn-stat: AverageLearnedNogoodLength=4
%%%mzn-stat: AverageBacktrackAmount=0
%%%mzn-stat: AverageLbd=3.3333333333333335
%%%mzn-stat: 2AutonomousSearchNumBackupCalled=65
%%%mzn-stat: 2AutonomousSearchNumPredicatesRemoved=0
%%%mzn-stat: 2AutonomousSearchNumCalls=66
%%%mzn-stat: 2AutonomousSearchNumPredicatesAdded=328
%%%mzn-stat: 2AutonomousSearchAverageSizeOfHeap=4.96969696969697
%%%mzn-stat: 2AutonomousSearchNumAssignedPredicatesEncountered=328
%%%mzn-stat-end
maxleg = 861;
succ = array1d(1..20,[4, 6, 17, 11, 8, 10, 15, 13, 5, 14, 12, 18, 20, 16, 3, 19, 1, 2, 9, 7]);
% time elapsed: 14.76 s
----------
==========
% time elapsed: 14.76 s
%%%mzn-stat: initTime=0.014584045
%%%mzn-stat: objective=861
%%%mzn-stat: nodes=246
%%%mzn-stat: restarts=0
%%%mzn-stat: peakDepth=72
%%%mzn-stat: solveTime=0.024074906
%%%mzn-stat: variables=198
%%%mzn-stat: propagators=120
%%%mzn-stat: failures=168
%%%mzn-stat: propagations=4718
%%%mzn-stat: nogoods=168
%%%mzn-stat: numAtomicConstraintsPropagated=0
%%%mzn-stat: circuitNumber1PropagationsTotal=754
%%%mzn-stat: circuitNumber1CircuitConflicts=136
%%%mzn-stat: circuitNumber1AlldiffConflicts=1
%%%mzn-stat: circuitNumber1TotalFixedEdgesAtConflict=2153
%%%mzn-stat: circuitNumber1NumberOfConflicts=137
%%%mzn-stat: circuitNumber1GacPrunings=1409
%%%mzn-stat: circuitNumber1PropagationsThatGacPruned=388
%%%mzn-stat: circuitNumber1TotalPruningHallSetSize=4723
%%%mzn-stat: circuitNumber1NumberOfPruningExplanations=1409
%%%mzn-stat: circuitNumber1MaxPruningHallSetSize=17
%%%mzn-stat: circuitNumber1TotalSccSizeAtPruning=1813
%%%mzn-stat: circuitNumber1NumberOfSccPruningCalls=388
%%%mzn-stat: circuitNumber1TotalVarsInvolvedInPruning=1121
%%%mzn-stat: circuitNumber1MaxValuesPrunedFromSingleVar=4
%%%mzn-stat: circuitNumber1HallCircuitChecks=1103
%%%mzn-stat: circuitNumber1HallCircuitPrunings=36
%%%mzn-stat: circuitNumber1CircuitPreventPrunings=360
%%%mzn-stat: AverageConflictSize=14.279761904761905
%%%mzn-stat: NumUnitNogoodsLearned=1
%%%mzn-stat: AverageLearnedNogoodLength=9.535714285714286
%%%mzn-stat: AverageBacktrackAmount=0
%%%mzn-stat: AverageLbd=3.869047619047619
%%%mzn-stat: 2AutonomousSearchNumBackupCalled=65
%%%mzn-stat: 2AutonomousSearchNumPredicatesRemoved=0
%%%mzn-stat: 2AutonomousSearchNumCalls=66
%%%mzn-stat: 2AutonomousSearchNumPredicatesAdded=802
%%%mzn-stat: 2AutonomousSearchAverageSizeOfHeap=4.96969696969697
%%%mzn-stat: 2AutonomousSearchNumAssignedPredicatesEncountered=328
%%%mzn-stat-end
